c instance by G2
c solution = 01011010000111000
c Known solution cost is 793 
p cnf 17 30
w 66 16 0 81 47 81 44 54 74 43 14 35 74 30 56 57 21
-12 -14 -17 0
1 3 12 0
-9 -11 -13 0
9 -4 7 0
9 17 -15 0
13 5 -8 0
-7 -16 17 0
5 10 16 0
13 -12 15 0
-13 16 -17 0
14 11 6 0
2 12 -7 0
11 4 2 0
10 -9 15 0
16 -4 13 0
-4 -2 7 0
12 16 -3 0
4 15 13 0
10 -1 3 0
-3 -2 -12 0
-7 3 -6 0
16 -10 6 0
-4 2 3 0
-7 9 4 0
-6 4 -17 0
-12 -13 -3 0
3 -10 -5 0
6 -11 -14 0
4 2 6 0
17 -7 -8 0
